instances/p2/p2_10_20-4.dzn
Alphabet = {A,C,G,T};
ns = 10;
nc = 17;
neighbours = [| I(G),I(T),I(G),I(G),I(C),Null,Null,Null,Null,Null,Null,Null,Null,Null,Null,Null,Null | I(A),I(A),I(G),I(G),Null,Null,Null,Null,Null,Null,Null,Null,Null,Null,Null,Null,Null | I(G),I(G),I(G),I(C),I(A),I(C),I(T),I(G),I(G),I(T),I(C),I(G),I(A),Null,Null,Null,Null | I(T),I(A),I(C),I(T),I(T),I(C),I(G),I(C),I(G),Null,Null,Null,Null,Null,Null,Null,Null | I(G),I(G),I(T),I(C),I(T),I(C),I(G),I(T),I(G),I(A),I(G),I(G),I(C),I(G),I(A),I(T),Null | I(G),I(A),Null,Null,Null,Null,Null,Null,Null,Null,Null,Null,Null,Null,Null,Null,Null | I(G),I(C),I(C),I(T),I(G),Null,Null,Null,Null,Null,Null,Null,Null,Null,Null,Null,Null | I(T),Null,Null,Null,Null,Null,Null,Null,Null,Null,Null,Null,Null,Null,Null,Null,Null | I(T),I(G),I(C),I(G),I(C),Null,Null,Null,Null,Null,Null,Null,Null,Null,Null,Null,Null | I(A),I(A),I(T),I(A),I(C),I(T),I(T),I(T),I(C),I(C),I(G),I(C),I(C),I(G),I(T),I(G),I(G) |];
